4998
5026
5009
5016
5010
5015
4991
4924
5027
4905
4963
4975
4944
4976
4948
4962
4976
5007
5031
4974
4998
4936
5032
4984
4950
4992
4955
5035
4913
4988
5038
4965
5026
4936
5039
5007
5020
4901
4930
4938
5032
5009
5028
5006
5040
5014
5010
5006
4939
4986
4993
5036
5020
5025
4998
5032
5059
5031
5038
4921
5005
5066
5032
5032
5086
5024
4945
5018
5037
4964
4947
4995
4944
4895
5053
4879
5056
4971
4910
5025
5004
4994
5045
5068
4978
4976
5025
4978
4974
4926
5057
4998
5072
5058
4997
5005
4995
5034
5001
4962
